treewidth/data/DesarguesGraph.gr
p tw 20 30
1 2
1 20
1 3
2 13
2 4
13 14
13 5
14 15
14 6
15 16
15 7
16 17
16 8
17 18
17 9
18 19
18 10
19 20
19 11
20 12
3 6
3 10
4 7
4 11
5 8
5 12
6 9
7 10
8 11
9 12
