treewidth/data/DesarguesGraph.td
c width = 6, time = 0.131270
s td 8 7 20
b 1 7 8 14 15 16 17
b 2 3 7 8 12 14 17 19
b 3 2 3 7 8 12 14 19
b 4 1 2 3 12 19 20
b 5 2 4 7 8 11 19
b 6 2 5 8 12 13 14
b 7 3 6 9 12 14 17
b 8 3 7 10 17 18 19
3 4
3 5
3 6
2 3
2 7
2 8
1 2
